Minimize
  - 42 y_0 - 22 y_1 - 27 y_2 - 37 y_3 - 21 y_4 - 28 y_5 - 7 y_7 - 45 y_8
   - 33 y_9 - 12 y_10 - 42 y_11 - 40 y_12 - 55 y_13 - 49 y_14 - 51 y_15
   - 35 y_16 - 45 y_17 - 15 y_18 - 23 y_19 + 629 Constant
Subject To
 c_0: y_5 = 1
 c_1_0: y_0 + y_11 + y_16 >= 1
 c_1_1: y_1 + y_2 + y_5 + y_18 >= 1
 c_1_2: y_1 + y_2 + y_5 + y_9 >= 1
 c_1_3: y_3 + y_8 + y_9 >= 1
 c_1_4: y_4 >= 1
 c_1_5: y_1 + y_2 + y_5 >= 1
 c_1_6: y_6 + y_7 >= 1
 c_1_7: y_6 + y_7 + y_10 + y_18 >= 1
 c_1_8: y_3 + y_8 >= 1
 c_1_9: y_2 + y_3 + y_9 >= 1
 c_1_10: y_7 + y_10 + y_18 >= 1
 c_1_11: y_0 + y_11 + y_16 >= 1
 c_1_12: y_12 + y_14 + y_17 >= 1
 c_1_13: y_13 + y_15 >= 1
 c_1_14: y_12 + y_14 + y_17 >= 1
 c_1_15: y_13 + y_15 >= 1
 c_1_16: y_0 + y_11 + y_16 >= 1
 c_1_17: y_12 + y_14 + y_17 >= 1
 c_1_18: y_1 + y_7 + y_10 + y_18 >= 1
 c_1_19: y_19 >= 1
Bounds
 Constant = 1
Binaries
 y_0 y_1 y_2 y_3 y_4 y_5 y_6 y_7 y_8 y_9 y_10 y_11 y_12 y_13 y_14 y_15 y_16
 y_17 y_18 y_19
End
